c "899684.clq"
p edge 197 2896
e 1 17
e 1 18
e 1 19
e 1 20
e 1 21
e 1 22
e 1 23
e 1 24
e 1 26
e 1 29
e 1 30
e 1 32
e 1 33
e 1 36
e 1 38
e 1 45
e 1 46
e 1 48
e 1 56
e 1 59
e 1 61
e 1 64
e 1 67
e 1 70
e 1 73
e 1 78
e 1 90
e 1 93
e 1 102
e 1 104
e 1 111
e 1 113
e 1 116
e 1 118
e 1 128
e 1 129
e 1 136
e 1 138
e 1 141
e 1 157
e 1 187
e 1 194
e 2 17
e 2 18
e 2 19
e 2 20
e 2 21
e 2 22
e 2 27
e 2 28
e 2 31
e 2 32
e 2 33
e 2 36
e 2 54
e 2 63
e 2 68
e 2 73
e 2 77
e 2 78
e 2 81
e 2 89
e 2 91
e 2 93
e 2 94
e 2 95
e 2 99
e 2 112
e 2 122
e 2 138
e 2 146
e 2 148
e 2 151
e 2 153
e 2 160
e 2 164
e 2 165
e 2 169
e 2 176
e 2 177
e 2 193
e 2 195
e 3 17
e 3 18
e 3 19
e 3 20
e 3 21
e 3 22
e 3 23
e 3 24
e 3 25
e 3 26
e 3 28
e 3 29
e 3 36
e 3 37
e 3 38
e 3 42
e 3 43
e 3 46
e 3 49
e 3 50
e 3 57
e 3 63
e 3 64
e 3 69
e 3 70
e 3 71
e 3 73
e 3 79
e 3 88
e 3 92
e 3 95
e 3 111
e 3 114
e 3 115
e 3 119
e 3 123
e 3 126
e 3 142
e 3 146
e 3 147
e 3 165
e 3 167
e 4 17
e 4 18
e 4 19
e 4 20
e 4 21
e 4 23
e 4 26
e 4 31
e 4 34
e 4 37
e 4 39
e 4 40
e 4 43
e 4 44
e 4 45
e 4 50
e 4 62
e 4 66
e 4 74
e 4 77
e 4 80
e 4 81
e 4 85
e 4 104
e 4 109
e 4 132
e 4 136
e 4 139
e 4 141
e 4 149
e 4 156
e 4 168
e 4 173
e 4 175
e 4 181
e 5 17
e 5 18
e 5 19
e 5 20
e 5 21
e 5 23
e 5 25
e 5 29
e 5 31
e 5 35
e 5 36
e 5 42
e 5 44
e 5 56
e 5 58
e 5 59
e 5 72
e 5 77
e 5 80
e 5 81
e 5 84
e 5 86
e 5 112
e 5 124
e 5 127
e 5 162
e 5 170
e 5 172
e 5 175
e 5 180
e 5 193
e 6 17
e 6 18
e 6 20
e 6 25
e 6 30
e 6 41
e 6 60
e 6 81
e 6 83
e 6 94
e 6 98
e 6 118
e 6 142
e 6 144
e 6 164
e 7 17
e 7 18
e 7 19
e 7 20
e 7 22
e 7 23
e 7 24
e 7 27
e 7 28
e 7 30
e 7 41
e 7 47
e 7 50
e 7 79
e 7 84
e 7 89
e 7 106
e 7 107
e 7 108
e 7 114
e 7 122
e 7 154
e 7 164
e 7 178
e 7 195
e 8 17
e 8 18
e 8 21
e 8 24
e 8 25
e 8 29
e 8 30
e 8 33
e 8 35
e 8 44
e 8 46
e 8 48
e 8 57
e 8 67
e 8 72
e 8 76
e 8 85
e 8 92
e 8 93
e 8 105
e 8 106
e 8 115
e 8 124
e 8 129
e 8 166
e 8 172
e 8 187
e 9 17
e 9 18
e 9 19
e 9 20
e 9 21
e 9 22
e 9 23
e 9 24
e 9 25
e 9 26
e 9 27
e 9 28
e 9 29
e 9 34
e 9 37
e 9 41
e 9 45
e 9 50
e 9 51
e 9 53
e 9 56
e 9 57
e 9 60
e 9 61
e 9 63
e 9 73
e 9 82
e 9 92
e 9 95
e 9 98
e 9 121
e 9 125
e 9 135
e 9 137
e 9 142
e 9 177
e 9 180
e 9 184
e 9 194
e 10 17
e 10 18
e 10 19
e 10 20
e 10 22
e 10 23
e 10 24
e 10 25
e 10 26
e 10 27
e 10 28
e 10 30
e 10 31
e 10 32
e 10 34
e 10 35
e 10 37
e 10 38
e 10 40
e 10 42
e 10 45
e 10 46
e 10 52
e 10 53
e 10 54
e 10 55
e 10 56
e 10 58
e 10 59
e 10 66
e 10 73
e 10 76
e 10 88
e 10 90
e 10 97
e 10 109
e 10 111
e 10 126
e 10 129
e 10 131
e 10 137
e 10 146
e 10 158
e 10 165
e 10 170
e 10 173
e 10 175
e 10 176
e 10 191
e 11 17
e 11 18
e 11 19
e 11 20
e 11 21
e 11 23
e 11 24
e 11 27
e 11 28
e 11 30
e 11 32
e 11 33
e 11 34
e 11 35
e 11 39
e 11 42
e 11 44
e 11 48
e 11 49
e 11 54
e 11 57
e 11 64
e 11 65
e 11 75
e 11 77
e 11 87
e 11 95
e 11 103
e 11 109
e 11 110
e 11 113
e 11 150
e 11 151
e 11 152
e 11 166
e 11 167
e 11 194
e 12 17
e 12 18
e 12 19
e 12 22
e 12 23
e 12 26
e 12 27
e 12 29
e 12 32
e 12 44
e 12 53
e 12 56
e 12 68
e 12 124
e 12 130
e 12 135
e 12 163
e 12 168
e 12 183
e 13 17
e 13 18
e 13 19
e 13 21
e 13 22
e 13 23
e 13 26
e 13 34
e 13 37
e 13 43
e 13 45
e 13 53
e 13 56
e 13 58
e 13 62
e 13 66
e 13 72
e 13 73
e 13 75
e 13 81
e 13 82
e 13 90
e 13 97
e 13 107
e 13 123
e 13 164
e 13 171
e 13 176
e 14 17
e 14 18
e 14 19
e 14 20
e 14 21
e 14 22
e 14 25
e 14 26
e 14 27
e 14 28
e 14 31
e 14 34
e 14 35
e 14 36
e 14 39
e 14 41
e 14 42
e 14 45
e 14 46
e 14 47
e 14 48
e 14 49
e 14 51
e 14 52
e 14 57
e 14 59
e 14 61
e 14 62
e 14 65
e 14 66
e 14 68
e 14 74
e 14 83
e 14 87
e 14 88
e 14 94
e 14 95
e 14 97
e 14 98
e 14 106
e 14 112
e 14 114
e 14 116
e 14 120
e 14 127
e 14 130
e 14 132
e 14 134
e 14 136
e 14 137
e 14 143
e 14 146
e 14 160
e 14 168
e 14 169
e 14 173
e 14 174
e 14 176
e 14 181
e 14 182
e 14 185
e 14 186
e 14 188
e 14 195
e 14 197
e 15 17
e 15 19
e 15 20
e 15 21
e 15 22
e 15 24
e 15 25
e 15 28
e 15 30
e 15 31
e 15 32
e 15 36
e 15 40
e 15 41
e 15 43
e 15 47
e 15 59
e 15 64
e 15 73
e 15 74
e 15 77
e 15 81
e 15 86
e 15 89
e 15 92
e 15 93
e 15 96
e 15 101
e 15 102
e 15 103
e 15 104
e 15 107
e 15 115
e 15 119
e 15 124
e 15 125
e 15 126
e 15 127
e 15 133
e 15 137
e 15 146
e 15 153
e 15 159
e 15 181
e 16 17
e 16 18
e 16 19
e 16 20
e 16 21
e 16 22
e 16 24
e 16 26
e 16 27
e 16 29
e 16 32
e 16 35
e 16 39
e 16 47
e 16 51
e 16 59
e 16 61
e 16 65
e 16 66
e 16 75
e 16 89
e 16 91
e 16 98
e 16 99
e 16 110
e 16 116
e 16 127
e 16 132
e 16 142
e 16 145
e 16 146
e 16 153
e 16 163
e 16 180
e 16 182
e 16 187
e 16 197
e 17 18
e 17 19
e 17 20
e 17 21
e 17 22
e 17 23
e 17 24
e 17 25
e 17 26
e 17 27
e 17 28
e 17 29
e 17 33
e 17 34
e 17 36
e 17 37
e 17 38
e 17 41
e 17 42
e 17 43
e 17 44
e 17 45
e 17 46
e 17 47
e 17 52
e 17 53
e 17 55
e 17 56
e 17 57
e 17 58
e 17 59
e 17 60
e 17 62
e 17 63
e 17 67
e 17 68
e 17 69
e 17 70
e 17 72
e 17 74
e 17 76
e 17 78
e 17 83
e 17 84
e 17 87
e 17 88
e 17 91
e 17 94
e 17 97
e 17 99
e 17 108
e 17 109
e 17 110
e 17 112
e 17 114
e 17 116
e 17 117
e 17 120
e 17 121
e 17 123
e 17 127
e 17 128
e 17 131
e 17 132
e 17 134
e 17 135
e 17 136
e 17 138
e 17 146
e 17 147
e 17 152
e 17 159
e 17 161
e 17 164
e 17 169
e 17 170
e 17 178
e 17 184
e 17 192
e 17 195
e 18 19
e 18 20
e 18 21
e 18 22
e 18 23
e 18 24
e 18 25
e 18 26
e 18 27
e 18 30
e 18 31
e 18 34
e 18 35
e 18 36
e 18 37
e 18 38
e 18 39
e 18 40
e 18 41
e 18 42
e 18 43
e 18 44
e 18 45
e 18 46
e 18 47
e 18 48
e 18 49
e 18 50
e 18 52
e 18 54
e 18 55
e 18 56
e 18 59
e 18 60
e 18 62
e 18 67
e 18 71
e 18 72
e 18 74
e 18 79
e 18 80
e 18 81
e 18 83
e 18 84
e 18 85
e 18 87
e 18 88
e 18 91
e 18 92
e 18 94
e 18 99
e 18 104
e 18 106
e 18 108
e 18 112
e 18 120
e 18 129
e 18 131
e 18 132
e 18 133
e 18 136
e 18 140
e 18 144
e 18 146
e 18 148
e 18 150
e 18 154
e 18 156
e 18 164
e 18 165
e 18 167
e 18 168
e 18 170
e 18 172
e 18 180
e 18 183
e 18 186
e 18 191
e 18 192
e 19 20
e 19 21
e 19 22
e 19 23
e 19 24
e 19 25
e 19 26
e 19 27
e 19 29
e 19 30
e 19 31
e 19 34
e 19 38
e 19 39
e 19 40
e 19 41
e 19 42
e 19 43
e 19 46
e 19 48
e 19 50
e 19 51
e 19 52
e 19 53
e 19 54
e 19 55
e 19 58
e 19 62
e 19 63
e 19 64
e 19 65
e 19 67
e 19 69
e 19 70
e 19 73
e 19 75
e 19 76
e 19 78
e 19 80
e 19 81
e 19 82
e 19 83
e 19 85
e 19 86
e 19 87
e 19 90
e 19 91
e 19 93
e 19 94
e 19 95
e 19 97
e 19 99
e 19 104
e 19 106
e 19 108
e 19 111
e 19 112
e 19 113
e 19 117
e 19 120
e 19 125
e 19 127
e 19 128
e 19 132
e 19 135
e 19 142
e 19 143
e 19 146
e 19 147
e 19 148
e 19 151
e 19 152
e 19 154
e 19 155
e 19 170
e 19 180
e 19 181
e 19 184
e 19 188
e 19 190
e 19 191
e 19 192
e 19 193
e 19 195
e 20 21
e 20 22
e 20 23
e 20 24
e 20 25
e 20 26
e 20 27
e 20 28
e 20 29
e 20 31
e 20 32
e 20 33
e 20 35
e 20 39
e 20 40
e 20 41
e 20 43
e 20 44
e 20 48
e 20 52
e 20 54
e 20 57
e 20 58
e 20 59
e 20 60
e 20 62
e 20 64
e 20 66
e 20 68
e 20 76
e 20 80
e 20 84
e 20 87
e 20 89
e 20 97
e 20 98
e 20 102
e 20 107
e 20 108
e 20 112
e 20 121
e 20 130
e 20 135
e 20 141
e 20 142
e 20 143
e 20 145
e 20 155
e 20 156
e 20 159
e 20 177
e 20 186
e 20 190
e 20 192
e 21 22
e 21 23
e 21 24
e 21 25
e 21 26
e 21 27
e 21 28
e 21 29
e 21 30
e 21 31
e 21 32
e 21 33
e 21 35
e 21 36
e 21 37
e 21 38
e 21 39
e 21 40
e 21 41
e 21 42
e 21 43
e 21 45
e 21 48
e 21 49
e 21 50
e 21 51
e 21 52
e 21 54
e 21 57
e 21 60
e 21 64
e 21 65
e 21 66
e 21 69
e 21 74
e 21 75
e 21 77
e 21 78
e 21 82
e 21 84
e 21 86
e 21 87
e 21 89
e 21 90
e 21 91
e 21 93
e 21 96
e 21 98
e 21 100
e 21 105
e 21 106
e 21 109
e 21 116
e 21 124
e 21 125
e 21 128
e 21 133
e 21 136
e 21 138
e 21 139
e 21 145
e 21 153
e 21 154
e 21 155
e 21 156
e 21 158
e 21 159
e 21 162
e 21 163
e 21 164
e 21 165
e 21 179
e 21 183
e 21 186
e 21 189
e 21 190
e 21 196
e 21 197
e 22 23
e 22 24
e 22 25
e 22 27
e 22 28
e 22 30
e 22 32
e 22 33
e 22 36
e 22 37
e 22 38
e 22 41
e 22 42
e 22 44
e 22 46
e 22 48
e 22 49
e 22 50
e 22 55
e 22 56
e 22 57
e 22 58
e 22 61
e 22 65
e 22 67
e 22 69
e 22 74
e 22 75
e 22 80
e 22 82
e 22 92
e 22 93
e 22 94
e 22 101
e 22 105
e 22 122
e 22 124
e 22 127
e 22 128
e 22 133
e 22 135
e 22 138
e 22 140
e 22 148
e 22 158
e 22 160
e 22 162
e 22 164
e 22 168
e 22 174
e 22 178
e 22 180
e 22 182
e 22 183
e 22 184
e 22 187
e 22 190
e 22 195
e 23 24
e 23 25
e 23 26
e 23 27
e 23 28
e 23 29
e 23 30
e 23 31
e 23 32
e 23 33
e 23 36
e 23 37
e 23 38
e 23 40
e 23 42
e 23 44
e 23 45
e 23 47
e 23 48
e 23 50
e 23 51
e 23 61
e 23 64
e 23 71
e 23 72
e 23 73
e 23 75
e 23 77
e 23 78
e 23 81
e 23 83
e 23 89
e 23 93
e 23 95
e 23 96
e 23 100
e 23 106
e 23 109
e 23 110
e 23 129
e 23 134
e 23 141
e 23 142
e 23 149
e 23 150
e 23 156
e 23 162
e 23 165
e 23 185
e 23 187
e 23 191
e 23 192
e 23 197
e 24 25
e 24 26
e 24 27
e 24 28
e 24 29
e 24 30
e 24 31
e 24 32
e 24 33
e 24 35
e 24 40
e 24 43
e 24 44
e 24 46
e 24 48
e 24 49
e 24 50
e 24 52
e 24 53
e 24 56
e 24 57
e 24 63
e 24 67
e 24 68
e 24 70
e 24 76
e 24 77
e 24 79
e 24 82
e 24 85
e 24 88
e 24 91
e 24 94
e 24 100
e 24 107
e 24 109
e 24 115
e 24 121
e 24 123
e 24 126
e 24 133
e 24 134
e 24 144
e 24 152
e 24 160
e 24 166
e 24 168
e 24 172
e 24 177
e 24 180
e 24 185
e 24 186
e 24 194
e 25 28
e 25 29
e 25 30
e 25 31
e 25 32
e 25 33
e 25 34
e 25 35
e 25 37
e 25 38
e 25 39
e 25 40
e 25 41
e 25 43
e 25 45
e 25 48
e 25 52
e 25 53
e 25 54
e 25 55
e 25 57
e 25 58
e 25 60
e 25 63
e 25 64
e 25 66
e 25 69
e 25 72
e 25 75
e 25 77
e 25 78
e 25 82
e 25 83
e 25 91
e 25 94
e 25 99
e 25 101
e 25 103
e 25 104
e 25 107
e 25 108
e 25 110
e 25 112
e 25 114
e 25 120
e 25 124
e 25 125
e 25 129
e 25 134
e 25 136
e 25 138
e 25 139
e 25 143
e 25 144
e 25 145
e 25 155
e 25 158
e 25 160
e 25 162
e 25 166
e 25 174
e 25 175
e 25 180
e 25 182
e 25 186
e 25 197
e 26 31
e 26 32
e 26 35
e 26 36
e 26 38
e 26 40
e 26 43
e 26 45
e 26 47
e 26 49
e 26 51
e 26 54
e 26 67
e 26 68
e 26 70
e 26 79
e 26 80
e 26 83
e 26 92
e 26 94
e 26 95
e 26 140
e 26 149
e 26 193
e 27 28
e 27 29
e 27 30
e 27 32
e 27 33
e 27 34
e 27 35
e 27 37
e 27 38
e 27 40
e 27 42
e 27 46
e 27 48
e 27 49
e 27 52
e 27 54
e 27 59
e 27 60
e 27 64
e 27 69
e 27 71
e 27 72
e 27 73
e 27 79
e 27 80
e 27 82
e 27 83
e 27 84
e 27 90
e 27 94
e 27 96
e 27 99
e 27 103
e 27 104
e 27 108
e 27 109
e 27 110
e 27 111
e 27 112
e 27 119
e 27 122
e 27 127
e 27 130
e 27 135
e 27 140
e 27 148
e 27 155
e 27 157
e 27 162
e 27 163
e 27 169
e 27 177
e 27 178
e 27 185
e 27 190
e 27 194
e 27 197
e 28 29
e 28 30
e 28 31
e 28 32
e 28 33
e 28 34
e 28 36
e 28 38
e 28 42
e 28 49
e 28 50
e 28 51
e 28 53
e 28 57
e 28 59
e 28 60
e 28 62
e 28 64
e 28 65
e 28 69
e 28 76
e 28 83
e 28 87
e 28 89
e 28 90
e 28 103
e 28 108
e 28 109
e 28 115
e 28 116
e 28 119
e 28 123
e 28 132
e 28 133
e 28 135
e 28 139
e 28 140
e 28 144
e 28 150
e 28 156
e 28 157
e 28 159
e 28 166
e 28 173
e 28 175
e 28 178
e 28 184
e 28 189
e 29 31
e 29 33
e 29 34
e 29 35
e 29 38
e 29 40
e 29 44
e 29 47
e 29 56
e 29 61
e 29 62
e 29 71
e 29 76
e 29 86
e 29 87
e 29 88
e 29 90
e 29 93
e 29 100
e 29 101
e 29 102
e 29 104
e 29 113
e 29 118
e 29 122
e 29 130
e 29 131
e 29 136
e 29 139
e 29 142
e 29 143
e 29 151
e 29 157
e 29 168
e 29 169
e 29 171
e 29 179
e 29 181
e 29 190
e 29 192
e 30 34
e 30 35
e 30 36
e 30 37
e 30 38
e 30 39
e 30 40
e 30 41
e 30 43
e 30 47
e 30 48
e 30 50
e 30 54
e 30 55
e 30 56
e 30 57
e 30 58
e 30 61
e 30 62
e 30 63
e 30 69
e 30 70
e 30 72
e 30 74
e 30 85
e 30 86
e 30 92
e 30 93
e 30 95
e 30 98
e 30 99
e 30 108
e 30 109
e 30 110
e 30 113
e 30 115
e 30 117
e 30 120
e 30 121
e 30 144
e 30 152
e 30 161
e 30 162
e 30 180
e 30 183
e 30 191
e 30 196
e 31 33
e 31 34
e 31 36
e 31 39
e 31 41
e 31 43
e 31 46
e 31 47
e 31 49
e 31 51
e 31 54
e 31 59
e 31 64
e 31 65
e 31 66
e 31 68
e 31 71
e 31 76
e 31 77
e 31 78
e 31 83
e 31 104
e 31 107
e 31 111
e 31 120
e 31 122
e 31 131
e 31 133
e 31 135
e 31 147
e 31 148
e 31 158
e 31 160
e 31 163
e 31 171
e 31 186
e 31 189
e 31 193
e 31 194
e 31 196
e 32 33
e 32 35
e 32 36
e 32 37
e 32 39
e 32 41
e 32 50
e 32 62
e 32 63
e 32 73
e 32 93
e 32 97
e 32 101
e 32 117
e 32 126
e 32 134
e 32 137
e 32 138
e 32 141
e 32 147
e 32 149
e 32 156
e 32 176
e 32 178
e 32 179
e 33 34
e 33 38
e 33 39
e 33 40
e 33 43
e 33 44
e 33 45
e 33 51
e 33 52
e 33 53
e 33 54
e 33 59
e 33 60
e 33 61
e 33 66
e 33 74
e 33 75
e 33 78
e 33 80
e 33 83
e 33 89
e 33 93
e 33 105
e 33 142
e 33 144
e 33 145
e 33 147
e 33 150
e 33 156
e 33 167
e 33 169
e 34 37
e 34 39
e 34 49
e 34 51
e 34 52
e 34 53
e 34 54
e 34 55
e 34 61
e 34 70
e 34 76
e 34 78
e 34 84
e 34 86
e 34 90
e 34 92
e 34 93
e 34 96
e 34 101
e 34 106
e 34 114
e 34 115
e 34 118
e 34 135
e 34 137
e 34 140
e 34 152
e 34 155
e 34 166
e 34 171
e 34 173
e 34 184
e 34 192
e 34 193
e 35 39
e 35 44
e 35 45
e 35 46
e 35 55
e 35 56
e 35 58
e 35 60
e 35 63
e 35 64
e 35 81
e 35 87
e 35 99
e 35 101
e 35 107
e 35 108
e 35 109
e 35 117
e 35 125
e 35 132
e 35 140
e 35 148
e 35 149
e 35 160
e 35 174
e 35 190
e 35 194
e 36 37
e 36 39
e 36 42
e 36 51
e 36 52
e 36 56
e 36 60
e 36 62
e 36 67
e 36 69
e 36 78
e 36 88
e 36 97
e 36 98
e 36 99
e 36 100
e 36 113
e 36 119
e 36 120
e 36 127
e 36 133
e 36 134
e 36 145
e 36 150
e 36 151
e 36 158
e 36 168
e 36 174
e 36 184
e 36 185
e 36 193
e 36 194
e 37 40
e 37 41
e 37 44
e 37 49
e 37 55
e 37 56
e 37 58
e 37 61
e 37 65
e 37 67
e 37 70
e 37 72
e 37 73
e 37 75
e 37 79
e 37 86
e 37 90
e 37 93
e 37 110
e 37 111
e 37 116
e 37 117
e 37 121
e 37 130
e 37 131
e 37 133
e 37 138
e 37 141
e 37 143
e 37 144
e 37 152
e 37 154
e 37 165
e 37 172
e 37 182
e 37 189
e 37 192
e 37 197
e 38 42
e 38 45
e 38 46
e 38 52
e 38 55
e 38 67
e 38 68
e 38 73
e 38 85
e 38 87
e 38 95
e 38 97
e 38 100
e 38 112
e 38 116
e 38 123
e 38 130
e 38 164
e 38 165
e 38 167
e 38 168
e 38 190
e 38 191
e 39 45
e 39 47
e 39 48
e 39 51
e 39 54
e 39 64
e 39 65
e 39 69
e 39 70
e 39 72
e 39 77
e 39 79
e 39 81
e 39 85
e 39 100
e 39 114
e 39 115
e 39 170
e 39 179
e 39 188
e 39 189
e 40 42
e 40 52
e 40 55
e 40 57
e 40 62
e 40 66
e 40 70
e 40 71
e 40 76
e 40 85
e 40 97
e 40 101
e 40 102
e 40 109
e 40 119
e 40 121
e 40 126
e 40 133
e 40 134
e 40 136
e 40 142
e 40 149
e 40 153
e 40 154
e 40 155
e 40 157
e 40 162
e 40 164
e 40 173
e 40 179
e 40 184
e 40 185
e 40 190
e 41 43
e 41 44
e 41 46
e 41 49
e 41 51
e 41 55
e 41 56
e 41 86
e 41 96
e 41 110
e 41 113
e 41 118
e 41 119
e 41 143
e 41 154
e 41 156
e 41 166
e 41 167
e 41 169
e 41 180
e 41 188
e 41 195
e 42 52
e 42 58
e 42 61
e 42 62
e 42 63
e 42 67
e 42 70
e 42 72
e 42 74
e 42 79
e 42 96
e 42 100
e 42 101
e 42 102
e 42 115
e 42 123
e 42 129
e 42 136
e 42 138
e 42 157
e 42 160
e 42 186
e 42 188
e 42 191
e 43 46
e 43 47
e 43 49
e 43 53
e 43 55
e 43 59
e 43 62
e 43 64
e 43 65
e 43 71
e 43 84
e 43 85
e 43 110
e 43 115
e 43 116
e 43 138
e 43 139
e 43 141
e 43 143
e 43 153
e 43 160
e 43 162
e 43 181
e 44 47
e 44 50
e 44 51
e 44 53
e 44 60
e 44 63
e 44 66
e 44 67
e 44 72
e 44 74
e 44 75
e 44 81
e 44 92
e 44 98
e 44 102
e 44 104
e 44 105
e 44 111
e 44 112
e 44 113
e 44 118
e 44 127
e 44 137
e 44 154
e 44 163
e 44 169
e 44 170
e 44 179
e 44 186
e 44 193
e 45 47
e 45 60
e 45 66
e 45 68
e 45 71
e 45 78
e 45 80
e 45 82
e 45 86
e 45 90
e 45 95
e 45 99
e 45 105
e 45 113
e 45 114
e 45 118
e 45 121
e 45 145
e 45 150
e 45 151
e 45 153
e 45 169
e 45 177
e 45 183
e 45 188
e 45 189
e 46 47
e 46 48
e 46 49
e 46 50
e 46 57
e 46 60
e 46 69
e 46 71
e 46 73
e 46 78
e 46 82
e 46 96
e 46 100
e 46 101
e 46 102
e 46 114
e 46 131
e 46 144
e 46 159
e 46 170
e 47 51
e 47 58
e 47 63
e 47 66
e 47 68
e 47 69
e 47 83
e 47 88
e 47 92
e 47 102
e 47 103
e 47 106
e 47 107
e 47 109
e 47 123
e 47 130
e 47 134
e 47 141
e 47 144
e 47 152
e 47 153
e 47 157
e 47 159
e 47 162
e 47 173
e 47 193
e 48 50
e 48 61
e 48 65
e 48 76
e 48 89
e 48 90
e 48 96
e 48 99
e 48 101
e 48 102
e 48 103
e 48 106
e 48 116
e 48 122
e 48 126
e 48 130
e 48 132
e 48 149
e 48 158
e 48 174
e 48 187
e 48 194
e 49 58
e 49 59
e 49 61
e 49 65
e 49 70
e 49 71
e 49 74
e 49 75
e 49 80
e 49 91
e 49 94
e 49 103
e 49 104
e 49 106
e 49 108
e 49 114
e 49 121
e 49 123
e 49 124
e 49 125
e 49 127
e 49 130
e 49 131
e 49 132
e 49 136
e 49 148
e 49 162
e 49 163
e 49 165
e 49 173
e 49 179
e 49 182
e 49 184
e 49 196
e 50 53
e 50 55
e 50 58
e 50 61
e 50 68
e 50 69
e 50 74
e 50 78
e 50 82
e 50 84
e 50 85
e 50 87
e 50 92
e 50 102
e 50 103
e 50 120
e 50 123
e 50 124
e 50 128
e 50 130
e 50 137
e 50 156
e 50 163
e 50 164
e 50 176
e 50 185
e 51 53
e 51 54
e 51 62
e 51 70
e 51 77
e 51 78
e 51 79
e 51 83
e 51 94
e 51 96
e 51 99
e 51 105
e 51 126
e 51 128
e 51 140
e 51 141
e 51 151
e 51 155
e 51 174
e 51 175
e 52 53
e 52 69
e 52 71
e 52 74
e 52 75
e 52 76
e 52 78
e 52 84
e 52 97
e 52 104
e 52 107
e 52 118
e 52 120
e 52 134
e 52 135
e 52 143
e 52 144
e 52 161
e 52 175
e 52 181
e 52 196
e 53 72
e 53 88
e 53 105
e 53 113
e 53 119
e 53 129
e 53 151
e 53 170
e 54 55
e 54 61
e 54 63
e 54 65
e 54 72
e 54 85
e 54 94
e 54 111
e 54 113
e 54 138
e 54 140
e 54 147
e 54 188
e 54 190
e 55 76
e 55 77
e 55 85
e 55 95
e 55 104
e 55 107
e 55 124
e 55 129
e 55 159
e 55 172
e 55 174
e 55 175
e 55 184
e 55 192
e 56 57
e 56 66
e 56 68
e 56 71
e 56 75
e 56 80
e 56 85
e 56 86
e 56 90
e 56 96
e 56 100
e 56 101
e 56 118
e 56 161
e 56 169
e 56 172
e 56 177
e 56 178
e 56 186
e 56 191
e 57 58
e 57 63
e 57 69
e 57 71
e 57 81
e 57 88
e 57 91
e 57 92
e 57 93
e 57 97
e 57 102
e 57 103
e 57 105
e 57 106
e 57 122
e 57 125
e 57 126
e 57 127
e 57 138
e 57 151
e 57 158
e 57 159
e 57 163
e 57 168
e 57 177
e 57 181
e 57 184
e 57 189
e 57 196
e 58 59
e 58 68
e 58 82
e 58 109
e 58 119
e 58 122
e 58 123
e 58 125
e 58 126
e 58 130
e 58 131
e 58 133
e 58 134
e 58 146
e 58 150
e 58 165
e 58 167
e 58 168
e 58 182
e 58 185
e 58 190
e 59 60
e 59 63
e 59 65
e 59 66
e 59 89
e 59 90
e 59 105
e 59 111
e 59 118
e 59 119
e 59 131
e 59 133
e 59 138
e 59 148
e 59 149
e 59 152
e 59 156
e 59 170
e 59 177
e 59 182
e 59 183
e 59 193
e 60 64
e 60 65
e 60 67
e 60 68
e 60 71
e 60 75
e 60 77
e 60 84
e 60 87
e 60 88
e 60 89
e 60 97
e 60 103
e 60 112
e 60 113
e 60 114
e 60 120
e 60 137
e 60 139
e 60 150
e 60 151
e 60 152
e 60 153
e 60 158
e 60 160
e 60 162
e 60 167
e 60 171
e 60 174
e 61 101
e 61 115
e 61 141
e 61 154
e 61 177
e 62 68
e 62 80
e 62 83
e 62 88
e 62 92
e 62 97
e 62 109
e 62 128
e 62 132
e 62 141
e 62 142
e 62 148
e 62 149
e 62 165
e 62 166
e 62 169
e 63 67
e 63 73
e 63 79
e 63 81
e 63 111
e 63 124
e 63 129
e 63 133
e 63 134
e 63 143
e 63 151
e 63 155
e 63 179
e 63 181
e 63 189
e 63 195
e 63 196
e 64 80
e 64 81
e 64 91
e 64 108
e 64 118
e 64 122
e 64 126
e 64 131
e 64 137
e 64 148
e 64 167
e 64 181
e 64 192
e 64 193
e 65 76
e 65 81
e 65 106
e 65 108
e 65 117
e 65 124
e 65 126
e 65 134
e 65 136
e 65 148
e 65 150
e 65 152
e 65 156
e 65 163
e 65 177
e 65 178
e 65 192
e 65 194
e 65 195
e 66 67
e 66 70
e 66 75
e 66 77
e 66 86
e 66 89
e 66 103
e 66 117
e 66 142
e 66 192
e 66 194
e 67 71
e 67 74
e 67 79
e 67 82
e 67 98
e 67 103
e 67 104
e 67 105
e 67 110
e 67 115
e 67 116
e 67 118
e 67 119
e 67 120
e 67 125
e 67 128
e 67 135
e 67 137
e 67 151
e 67 157
e 67 167
e 68 84
e 68 90
e 68 97
e 68 99
e 68 103
e 68 106
e 68 110
e 68 111
e 68 112
e 68 154
e 68 171
e 68 180
e 68 181
e 68 187
e 69 70
e 69 107
e 69 136
e 69 141
e 69 147
e 69 149
e 69 165
e 69 185
e 70 74
e 70 79
e 70 84
e 70 86
e 70 89
e 70 96
e 70 118
e 70 122
e 70 130
e 70 154
e 70 164
e 70 167
e 70 169
e 70 173
e 71 72
e 71 73
e 71 79
e 71 115
e 71 128
e 71 129
e 71 136
e 71 139
e 71 148
e 71 154
e 71 155
e 71 158
e 71 159
e 71 163
e 71 189
e 71 196
e 72 76
e 72 79
e 72 80
e 72 85
e 72 87
e 72 88
e 72 95
e 72 96
e 72 98
e 72 114
e 72 117
e 72 131
e 72 166
e 72 168
e 72 172
e 72 174
e 72 176
e 72 178
e 72 180
e 72 192
e 72 193
e 72 195
e 72 197
e 73 77
e 73 83
e 73 91
e 73 96
e 73 103
e 73 116
e 73 123
e 73 128
e 73 135
e 73 148
e 73 154
e 73 159
e 73 162
e 73 164
e 73 173
e 73 179
e 73 184
e 73 194
e 74 82
e 74 89
e 74 95
e 74 100
e 74 119
e 74 147
e 74 182
e 74 189
e 75 84
e 75 86
e 75 90
e 75 98
e 75 104
e 75 117
e 75 120
e 75 135
e 75 141
e 75 143
e 75 147
e 75 187
e 76 80
e 76 82
e 76 88
e 76 124
e 76 128
e 76 134
e 76 158
e 76 160
e 76 171
e 76 184
e 76 191
e 76 192
e 77 79
e 77 82
e 77 91
e 77 100
e 77 118
e 77 125
e 77 129
e 77 133
e 77 149
e 77 150
e 77 151
e 77 170
e 77 176
e 77 197
e 78 91
e 78 94
e 78 96
e 78 98
e 78 105
e 78 106
e 78 117
e 78 119
e 78 146
e 78 150
e 78 157
e 79 84
e 79 89
e 79 99
e 79 100
e 79 101
e 79 108
e 79 111
e 79 114
e 79 115
e 79 121
e 79 153
e 79 161
e 79 169
e 79 171
e 79 173
e 79 179
e 79 188
e 79 195
e 80 85
e 80 88
e 80 91
e 80 113
e 80 118
e 80 119
e 80 123
e 80 127
e 80 132
e 80 159
e 80 160
e 80 164
e 80 191
e 81 107
e 81 125
e 81 134
e 81 145
e 81 167
e 81 168
e 81 189
e 82 86
e 82 100
e 82 102
e 82 110
e 82 111
e 82 114
e 82 119
e 82 125
e 82 126
e 82 129
e 82 145
e 82 155
e 82 166
e 82 178
e 82 179
e 82 194
e 83 87
e 83 98
e 83 102
e 83 116
e 83 120
e 83 122
e 83 128
e 83 137
e 83 138
e 83 157
e 83 193
e 84 99
e 84 119
e 84 125
e 84 147
e 84 167
e 84 174
e 85 86
e 85 95
e 85 97
e 85 101
e 85 105
e 85 126
e 85 128
e 85 142
e 85 143
e 86 87
e 86 92
e 86 123
e 86 132
e 86 157
e 86 164
e 86 176
e 86 187
e 87 92
e 87 121
e 87 137
e 87 145
e 87 166
e 87 173
e 87 175
e 88 105
e 88 110
e 88 112
e 88 120
e 88 121
e 88 122
e 88 135
e 88 141
e 88 142
e 88 156
e 88 176
e 88 191
e 89 91
e 89 95
e 89 96
e 89 117
e 89 143
e 89 145
e 89 177
e 90 107
e 90 117
e 90 118
e 90 124
e 90 155
e 90 161
e 90 175
e 91 93
e 91 100
e 91 122
e 91 129
e 91 130
e 91 131
e 91 149
e 91 194
e 92 103
e 92 110
e 92 126
e 92 128
e 92 133
e 92 149
e 92 155
e 92 172
e 92 174
e 92 197
e 93 94
e 93 107
e 93 113
e 93 116
e 93 139
e 93 144
e 94 105
e 94 106
e 94 111
e 94 116
e 94 161
e 94 176
e 95 98
e 95 102
e 95 121
e 95 147
e 96 98
e 96 108
e 97 111
e 97 114
e 97 122
e 97 147
e 97 153
e 97 162
e 97 166
e 97 178
e 97 188
e 98 101
e 98 102
e 98 110
e 98 156
e 98 158
e 98 163
e 98 185
e 98 187
e 99 100
e 99 104
e 99 112
e 99 123
e 99 128
e 99 129
e 99 139
e 99 145
e 99 178
e 100 121
e 100 138
e 100 144
e 100 197
e 101 113
e 101 138
e 101 147
e 101 151
e 101 152
e 101 159
e 101 178
e 101 180
e 102 105
e 102 108
e 102 109
e 102 124
e 102 139
e 102 143
e 102 149
e 102 158
e 102 161
e 102 185
e 103 107
e 103 113
e 103 115
e 103 146
e 103 149
e 103 174
e 103 181
e 104 161
e 104 185
e 105 129
e 105 135
e 105 144
e 105 155
e 106 114
e 106 124
e 106 145
e 106 153
e 106 154
e 106 157
e 106 161
e 106 182
e 106 188
e 107 147
e 107 152
e 107 171
e 107 176
e 107 181
e 107 186
e 107 197
e 108 117
e 108 120
e 108 132
e 108 137
e 108 139
e 108 160
e 108 163
e 108 165
e 108 196
e 109 117
e 109 170
e 109 195
e 110 112
e 110 116
e 110 160
e 110 163
e 110 171
e 111 122
e 111 137
e 111 179
e 111 183
e 111 191
e 111 193
e 112 115
e 112 117
e 112 127
e 112 139
e 112 144
e 112 152
e 112 166
e 112 180
e 112 183
e 112 191
e 112 192
e 113 140
e 113 146
e 113 196
e 114 121
e 114 139
e 114 142
e 114 145
e 114 153
e 114 168
e 114 179
e 115 121
e 115 150
e 115 156
e 115 160
e 115 173
e 116 123
e 116 131
e 116 134
e 116 164
e 116 170
e 116 179
e 116 182
e 116 196
e 117 125
e 117 158
e 117 190
e 118 126
e 118 140
e 118 152
e 119 175
e 120 132
e 120 133
e 120 141
e 120 145
e 120 151
e 120 181
e 121 136
e 121 148
e 122 127
e 122 140
e 122 154
e 122 182
e 122 183
e 123 125
e 123 127
e 123 131
e 123 140
e 123 183
e 124 132
e 124 139
e 124 140
e 124 152
e 124 153
e 124 155
e 124 162
e 124 175
e 124 187
e 125 140
e 125 149
e 125 157
e 125 160
e 125 197
e 126 130
e 126 143
e 126 145
e 126 146
e 126 163
e 126 169
e 126 177
e 127 131
e 127 139
e 127 146
e 127 148
e 127 150
e 127 168
e 127 172
e 127 174
e 128 130
e 128 140
e 128 172
e 128 195
e 129 156
e 129 159
e 129 161
e 129 183
e 129 189
e 130 157
e 130 188
e 130 196
e 131 153
e 131 158
e 131 167
e 131 174
e 131 176
e 132 144
e 132 176
e 132 185
e 133 137
e 133 143
e 133 150
e 133 171
e 133 183
e 133 189
e 133 197
e 134 136
e 134 141
e 134 165
e 134 170
e 134 172
e 134 191
e 135 142
e 135 163
e 136 165
e 136 172
e 136 179
e 136 182
e 136 196
e 138 170
e 138 175
e 138 176
e 138 195
e 138 197
e 139 146
e 139 166
e 139 188
e 140 173
e 141 165
e 141 181
e 141 182
e 141 184
e 141 189
e 142 147
e 142 151
e 142 153
e 142 155
e 142 161
e 142 185
e 142 186
e 143 193
e 144 171
e 144 182
e 144 185
e 145 161
e 145 178
e 145 184
e 146 158
e 146 176
e 146 195
e 147 150
e 147 157
e 148 159
e 148 171
e 148 172
e 148 183
e 148 188
e 148 192
e 149 172
e 150 154
e 150 161
e 150 169
e 150 187
e 150 188
e 151 177
e 151 194
e 152 157
e 152 171
e 152 183
e 152 196
e 153 187
e 154 161
e 154 178
e 154 185
e 154 190
e 155 159
e 155 169
e 155 175
e 155 190
e 156 162
e 156 167
e 156 172
e 156 173
e 156 177
e 158 187
e 158 191
e 159 189
e 159 191
e 160 161
e 160 166
e 160 167
e 161 170
e 162 168
e 162 186
e 164 166
e 164 178
e 164 181
e 164 183
e 165 171
e 166 180
e 167 174
e 167 175
e 168 186
e 168 188
e 169 171
e 169 197
e 171 173
e 171 186
e 172 175
e 172 177
e 173 179
e 175 182
e 175 187
e 176 187
e 177 184
e 177 186
e 177 193
e 179 180
e 181 190
e 181 195
e 182 190
e 184 188
e 184 189
e 185 196
e 189 196
e 191 194
